p edge 34 102
e 1 13
e 1 22
e 1 33
e 2 22
e 2 25
e 2 28
e 3 20
e 3 23
e 3 32
e 4 10
e 4 16
e 4 27
e 5 10
e 5 20
e 5 34
e 6 18
e 6 32
e 6 33
e 7 18
e 7 33
e 7 33
e 8 4
e 8 25
e 8 32
e 9 2
e 9 12
e 9 13
e 10 15
e 10 16
e 10 33
e 11 3
e 11 33
e 11 34
e 12 5
e 12 31
e 12 32
e 13 2
e 13 16
e 13 28
e 14 2
e 14 5
e 14 12
e 15 11
e 15 14
e 15 21
e 16 5
e 16 9
e 16 19
e 17 12
e 17 32
e 17 34
e 18 15
e 18 23
e 18 33
e 19 2
e 19 8
e 19 21
e 20 6
e 20 17
e 20 21
e 21 24
e 21 27
e 21 28
e 22 23
e 22 29
e 22 32
e 23 12
e 23 31
e 23 33
e 24 8
e 24 9
e 24 16
e 25 3
e 25 18
e 25 29
e 26 15
e 26 22
e 26 34
e 27 8
e 27 12
e 27 26
e 28 5
e 28 15
e 28 34
e 29 12
e 29 15
e 29 24
e 30 6
e 30 28
e 30 32
e 31 7
e 31 17
e 31 26
e 32 12
e 32 18
e 32 20
e 33 14
e 33 16
e 33 19
e 34 23
e 34 25
e 34 27
